set VV := 0 1 2 3 4 5 6 7 8 9 10 11 12 13 14 15 16 17 18 19 20 21 ;
set VS := 0 1 2 3 4 5 6 7 8 9 10 11 12 13 14 15 16 17 18 19 20 21 22 23 24 25 26 27 28 29 30 31 32 33 34 35 36 37 38 39 40 41 42 43 44 45 46 47 ;
param cv := 
0 20
1 25
2 18
3 23
4 25
5 25
6 25
7 16
8 13
9 18
10 21
11 11
12 16
13 24
14 23
15 16
16 25
17 10
18 23
19 15
20 25
21 22
;
param cs := 
0 21
1 34
2 37
3 25
4 34
5 32
6 24
7 30
8 26
9 31
10 27
11 33
12 34
13 27
14 21
15 40
16 24
17 25
18 29
19 25
20 32
21 33
22 26
23 33
24 21
25 29
26 20
27 31
28 22
29 33
30 29
31 24
32 39
33 40
34 33
35 23
36 26
37 35
38 20
39 39
40 28
41 24
42 32
43 40
44 32
45 28
46 34
47 31
;
param bv:	 0 1 2 3 4 5 6 7 8 9 10 11 12 13 14 15 16 17 18 19 20 21 := 
		0 0 0 0 0 17 0 0 0 0 13 0 0 0 0 0 0 0 0 0 0 0 0 
		1 0 0 0 10 25 0 0 0 0 0 0 0 0 25 0 0 0 0 0 0 0 0 
		2 0 0 0 0 0 0 0 0 0 0 0 0 0 0 0 0 17 0 0 0 12 0 
		3 0 0 0 0 0 0 0 0 0 0 0 0 0 0 0 0 0 0 0 0 0 0 
		4 0 0 0 0 0 0 19 0 0 0 0 14 0 0 0 0 0 0 0 0 0 0 
		5 0 0 0 0 0 0 0 0 0 0 0 0 0 0 0 0 0 0 0 16 0 0 
		6 0 0 0 0 0 0 0 0 12 0 20 0 0 0 0 0 0 0 0 0 10 0 
		7 0 0 0 0 0 0 0 0 0 0 0 0 0 0 0 0 0 24 0 14 0 0 
		8 0 0 0 0 0 0 0 0 0 0 13 0 17 0 0 0 0 0 0 0 0 12 
		9 0 0 0 0 0 0 0 0 0 0 0 0 0 0 0 0 0 0 0 20 0 0 
		10 0 0 0 0 0 0 0 0 0 0 0 16 21 0 0 0 0 14 0 0 0 0 
		11 0 0 0 0 0 0 0 0 0 0 0 0 14 0 0 0 0 19 13 0 0 0 
		12 0 0 0 0 0 0 0 0 0 0 0 0 0 20 0 20 15 0 0 0 0 0 
		13 0 0 0 0 0 0 0 0 0 0 0 0 0 0 0 0 0 0 14 0 0 0 
		14 0 0 0 0 0 0 0 0 0 0 0 0 0 0 0 0 0 0 0 0 0 25 
		15 0 0 0 0 0 0 0 0 0 0 0 0 0 0 0 0 0 0 0 0 0 0 
		16 0 0 0 0 0 0 0 0 0 0 0 0 0 0 0 0 0 0 0 0 0 0 
		17 0 0 0 0 0 0 0 0 0 0 0 0 0 0 0 0 0 0 0 0 0 0 
		18 0 0 0 0 0 0 0 0 0 0 0 0 0 0 0 0 0 0 0 0 0 0 
		19 0 0 0 0 0 0 0 0 0 0 0 0 0 0 0 0 0 0 0 0 0 0 
		20 0 0 0 0 0 0 0 0 0 0 0 0 0 0 0 0 0 0 0 0 0 0 
		21 0 0 0 0 0 0 0 0 0 0 0 0 0 0 0 0 0 0 0 0 0 0 
;
param bs:	 0 1 2 3 4 5 6 7 8 9 10 11 12 13 14 15 16 17 18 19 20 21 22 23 24 25 26 27 28 29 30 31 32 33 34 35 36 37 38 39 40 41 42 43 44 45 46 47 := 
		0 0 0 28 0 0 0 0 25 0 0 25 30 0 0 0 0 0 0 0 0 21 0 0 0 0 25 0 0 0 0 0 0 0 0 0 0 0 0 0 0 0 0 0 0 0 0 0 0 
		1 0 0 0 0 0 0 0 0 0 0 0 22 0 0 0 34 0 0 0 0 0 0 0 0 26 0 0 0 0 0 0 0 0 0 0 0 0 0 0 0 0 0 0 24 0 0 0 0 
		2 28 0 0 0 0 0 0 0 0 0 0 0 0 0 0 0 0 0 23 0 0 0 0 0 0 23 0 0 0 0 0 0 0 0 0 0 24 0 0 0 0 0 27 0 0 0 0 0 
		3 0 0 0 0 0 0 0 0 0 0 0 0 0 0 0 0 0 33 0 0 0 0 0 27 0 0 0 0 0 0 0 0 0 30 0 0 0 0 0 0 36 0 35 0 0 0 0 0 
		4 0 0 0 0 0 0 0 0 0 0 30 0 0 0 0 0 0 0 0 0 39 0 0 0 0 0 0 0 0 0 0 0 0 0 33 0 23 39 0 0 0 0 0 0 0 0 0 26 
		5 0 0 0 0 0 0 0 30 0 0 0 0 0 0 0 0 0 0 0 0 23 0 0 0 0 0 0 0 0 0 0 0 0 0 30 0 0 0 0 0 37 0 0 0 0 0 0 0 
		6 0 0 0 0 0 0 0 0 36 0 0 0 0 0 0 0 31 0 0 0 0 0 0 0 0 0 0 0 0 0 0 0 31 0 0 0 0 0 0 0 0 0 0 0 0 0 0 0 
		7 25 0 0 0 0 30 0 0 26 0 0 0 0 0 0 0 0 0 0 0 0 0 0 0 40 0 0 27 0 35 0 0 0 0 30 0 0 0 0 0 0 20 0 0 0 0 0 0 
		8 0 0 0 0 0 0 36 26 0 0 0 0 0 0 0 0 40 0 0 0 0 0 0 0 0 0 0 0 0 0 0 0 0 0 0 0 0 0 0 0 0 0 0 0 0 0 39 0 
		9 0 0 0 0 0 0 0 0 0 0 0 0 0 0 0 0 0 0 0 23 0 0 0 0 0 0 0 20 0 30 0 0 0 0 0 29 0 0 0 0 0 0 0 0 0 0 0 0 
		10 25 0 0 0 30 0 0 0 0 0 0 0 0 0 0 0 0 0 0 0 0 0 0 0 0 0 0 0 0 0 0 0 0 36 0 0 0 0 0 0 0 0 0 0 0 0 0 0 
		11 30 22 0 0 0 0 0 0 0 0 0 0 0 26 0 0 0 31 0 0 0 0 0 0 0 0 25 0 21 0 0 0 0 0 28 0 0 0 29 30 25 0 0 0 0 0 0 0 
		12 0 0 0 0 0 0 0 0 0 0 0 0 0 0 0 0 0 0 0 0 0 0 0 0 0 0 0 0 0 0 0 0 0 0 0 0 0 0 0 0 0 0 0 0 0 26 0 0 
		13 0 0 0 0 0 0 0 0 0 0 0 26 0 0 0 0 0 0 0 0 0 0 28 29 0 0 0 0 0 0 0 37 0 32 0 0 0 24 0 0 0 0 0 0 0 0 0 0 
		14 0 0 0 0 0 0 0 0 0 0 0 0 0 0 0 0 34 0 0 0 0 0 0 0 22 0 0 0 0 28 0 0 0 0 0 0 0 0 0 0 0 0 0 0 0 40 0 0 
		15 0 34 0 0 0 0 0 0 0 0 0 0 0 0 0 0 0 0 0 0 0 0 0 0 0 0 0 0 0 0 0 0 0 0 0 0 0 30 0 0 0 0 0 0 20 0 39 0 
		16 0 0 0 0 0 0 31 0 40 0 0 0 0 0 34 0 0 0 0 0 0 0 0 0 0 0 0 0 0 0 0 0 0 0 0 0 0 0 0 0 0 0 0 0 0 0 0 0 
		17 0 0 0 33 0 0 0 0 0 0 0 31 0 0 0 0 0 0 0 0 32 0 0 0 28 0 20 0 0 0 0 0 0 0 0 0 0 0 0 0 36 0 0 0 0 0 0 0 
		18 0 0 23 0 0 0 0 0 0 0 0 0 0 0 0 0 0 0 0 0 0 0 29 25 21 35 0 0 0 0 0 0 0 0 0 0 32 0 0 0 0 0 0 0 0 39 0 0 
		19 0 0 0 0 0 0 0 0 0 23 0 0 0 0 0 0 0 0 0 0 0 0 0 0 0 0 0 0 0 0 0 0 0 0 26 0 0 0 0 0 0 0 0 32 0 0 0 0 
		20 21 0 0 0 39 23 0 0 0 0 0 0 0 0 0 0 0 32 0 0 0 0 0 0 22 0 0 0 0 0 0 0 0 0 0 0 0 0 0 0 0 0 0 0 0 0 0 0 
		21 0 0 0 0 0 0 0 0 0 0 0 0 0 0 0 0 0 0 0 0 0 0 0 0 0 0 0 0 0 0 0 34 0 0 20 0 0 0 0 0 0 0 33 0 0 0 0 0 
		22 0 0 0 0 0 0 0 0 0 0 0 0 0 28 0 0 0 0 29 0 0 0 0 0 0 0 0 33 35 0 22 0 0 0 39 0 0 0 0 0 0 0 20 0 0 0 0 0 
		23 0 0 0 27 0 0 0 0 0 0 0 0 0 29 0 0 0 0 25 0 0 0 0 0 0 0 0 0 0 0 33 0 0 29 0 0 0 0 0 40 23 0 0 0 0 0 0 0 
		24 0 26 0 0 0 0 0 40 0 0 0 0 0 0 22 0 0 28 21 0 22 0 0 0 0 0 0 0 0 0 0 0 26 0 32 0 21 0 0 0 20 25 0 0 34 0 22 0 
		25 25 0 23 0 0 0 0 0 0 0 0 0 0 0 0 0 0 0 35 0 0 0 0 0 0 0 0 0 0 0 0 0 0 0 0 0 0 0 0 0 0 0 0 0 0 0 0 0 
		26 0 0 0 0 0 0 0 0 0 0 0 25 0 0 0 0 0 20 0 0 0 0 0 0 0 0 0 0 0 0 0 0 0 0 0 0 0 0 0 0 33 0 0 0 0 0 0 0 
		27 0 0 0 0 0 0 0 27 0 20 0 0 0 0 0 0 0 0 0 0 0 0 33 0 0 0 0 0 0 0 0 0 0 0 0 0 0 0 38 0 0 0 39 33 0 0 0 0 
		28 0 0 0 0 0 0 0 0 0 0 0 21 0 0 0 0 0 0 0 0 0 0 35 0 0 0 0 0 0 0 0 0 0 36 0 0 0 36 0 0 0 0 0 25 37 0 0 0 
		29 0 0 0 0 0 0 0 35 0 30 0 0 0 0 28 0 0 0 0 0 0 0 0 0 0 0 0 0 0 0 38 0 0 29 40 0 0 34 0 0 0 0 0 0 0 39 0 0 
		30 0 0 0 0 0 0 0 0 0 0 0 0 0 0 0 0 0 0 0 0 0 0 22 33 0 0 0 0 0 38 0 27 0 0 0 0 0 0 0 0 0 26 0 0 0 0 0 0 
		31 0 0 0 0 0 0 0 0 0 0 0 0 0 37 0 0 0 0 0 0 0 34 0 0 0 0 0 0 0 0 27 0 0 0 0 0 0 0 23 0 0 32 0 0 0 0 0 0 
		32 0 0 0 0 0 0 31 0 0 0 0 0 0 0 0 0 0 0 0 0 0 0 0 0 26 0 0 0 0 0 0 0 0 20 0 0 0 0 0 0 36 0 0 0 0 0 29 0 
		33 0 0 0 30 0 0 0 0 0 0 36 0 0 32 0 0 0 0 0 0 0 0 0 29 0 0 0 0 36 29 0 0 20 0 0 0 0 0 0 29 0 0 0 33 0 0 0 0 
		34 0 0 0 0 33 30 0 30 0 0 0 28 0 0 0 0 0 0 0 26 0 20 39 0 32 0 0 0 0 40 0 0 0 0 0 0 0 38 0 0 0 0 0 0 0 0 0 0 
		35 0 0 0 0 0 0 0 0 0 29 0 0 0 0 0 0 0 0 0 0 0 0 0 0 0 0 0 0 0 0 0 0 0 0 0 0 0 0 0 0 0 0 0 26 0 0 0 0 
		36 0 0 24 0 23 0 0 0 0 0 0 0 0 0 0 0 0 0 32 0 0 0 0 0 21 0 0 0 0 0 0 0 0 0 0 0 0 0 35 0 0 0 0 26 0 0 0 0 
		37 0 0 0 0 39 0 0 0 0 0 0 0 0 24 0 30 0 0 0 0 0 0 0 0 0 0 0 0 36 34 0 0 0 0 38 0 0 0 0 38 0 0 0 0 0 0 0 0 
		38 0 0 0 0 0 0 0 0 0 0 0 29 0 0 0 0 0 0 0 0 0 0 0 0 0 0 0 38 0 0 0 23 0 0 0 0 35 0 0 0 0 0 0 31 0 0 0 0 
		39 0 0 0 0 0 0 0 0 0 0 0 30 0 0 0 0 0 0 0 0 0 0 0 40 0 0 0 0 0 0 0 0 0 29 0 0 0 38 0 0 0 0 0 0 0 0 0 0 
		40 0 0 0 36 0 37 0 0 0 0 0 25 0 0 0 0 0 36 0 0 0 0 0 23 20 0 33 0 0 0 0 0 36 0 0 0 0 0 0 0 0 0 0 30 0 0 0 0 
		41 0 0 0 0 0 0 0 20 0 0 0 0 0 0 0 0 0 0 0 0 0 0 0 0 25 0 0 0 0 0 26 32 0 0 0 0 0 0 0 0 0 0 0 0 0 0 0 0 
		42 0 0 27 35 0 0 0 0 0 0 0 0 0 0 0 0 0 0 0 0 0 33 20 0 0 0 0 39 0 0 0 0 0 0 0 0 0 0 0 0 0 0 0 0 0 0 0 0 
		43 0 24 0 0 0 0 0 0 0 0 0 0 0 0 0 0 0 0 0 32 0 0 0 0 0 0 0 33 25 0 0 0 0 33 0 26 26 0 31 0 30 0 0 0 0 30 0 0 
		44 0 0 0 0 0 0 0 0 0 0 0 0 0 0 0 20 0 0 0 0 0 0 0 0 34 0 0 0 37 0 0 0 0 0 0 0 0 0 0 0 0 0 0 0 0 0 0 0 
		45 0 0 0 0 0 0 0 0 0 0 0 0 26 0 40 0 0 0 39 0 0 0 0 0 0 0 0 0 0 39 0 0 0 0 0 0 0 0 0 0 0 0 0 30 0 0 0 0 
		46 0 0 0 0 0 0 0 0 39 0 0 0 0 0 0 39 0 0 0 0 0 0 0 0 22 0 0 0 0 0 0 0 29 0 0 0 0 0 0 0 0 0 0 0 0 0 0 0 
		47 0 0 0 0 26 0 0 0 0 0 0 0 0 0 0 0 0 0 0 0 0 0 0 0 0 0 0 0 0 0 0 0 0 0 0 0 0 0 0 0 0 0 0 0 0 0 0 0 
;
